peakDumbCharging = 14800; 
Machine = anon_enum(16); 
machineSpeed = [3700,3700,3700,3700,3700,3700,3700,3700,3700,3700,3700,3700,3700,3700,3700,3700]; 
machineLoad = [3700,3700,3700,3700,3700,3700,3700,3700,3700,3700,3700,3700,3700,3700,3700,3700]; 
Car = anon_enum(17); 
demandCar = [13760,21840,6720,5760,11920,19840,29120,5800,2280,6680,9680,5400,11960,2480,12240,6320,27080]; 
arrivalCar = [75,74,72,68,65,62,56,55,55,54,52,51,49,46,45,43,34]; 
departureCar = [80,82,75,72,71,69,66,59,57,57,56,55,56,48,52,46,56]; 
